
List of user-set options:

                                    Name   Value                used
                           linear_solver = ma57                  yes
                  ma57_automatic_scaling = yes                   yes
                                max_iter = 3000                  yes
                             mu_strategy = adaptive              yes
                        option_file_name = ipoptOPTIONS.txt      yes
                             output_file = ipoptINFO.txt         yes
                      print_user_options = yes                   yes
                                     tol = 1e-05                 yes

******************************************************************************
This program contains Ipopt, a library for large-scale nonlinear optimization.
 Ipopt is released as open source code under the Eclipse Public License (EPL).
         For more information visit https://github.com/coin-or/Ipopt
******************************************************************************

This is Ipopt version 3.14.12, running with linear solver ma57.

Number of nonzeros in equality constraint Jacobian...:      544
Number of nonzeros in inequality constraint Jacobian.:       81
Number of nonzeros in Lagrangian Hessian.............:       80


Number of Iterations....: 0

Number of objective function evaluations             = 0
Number of objective gradient evaluations             = 0
Number of equality constraint evaluations            = 0
Number of inequality constraint evaluations          = 1
Number of equality constraint Jacobian evaluations   = 0
Number of inequality constraint Jacobian evaluations = 0
Number of Lagrangian Hessian evaluations             = 0
Total seconds in IPOPT                               = 0.001

EXIT: Invalid number in NLP function or derivative detected.
